p cnf 1096 1206
c ind 820 825 826 827 828 829 831 832 833 834 0
c ind 835 836 837 838 839 840 841 842 843 844 0
c ind 845 846 847 848 849 850 855 856 862 863 0
c ind 864 865 866 867 868 869 870 871 872 873 0
c ind 874 875 876 885 886 887 888 891 892 893 0
c ind 894 895 896 899 900 901 902 903 904 913 0
c ind 914 915 916 919 920 921 922 923 924 927 0
c ind 928 929 930 931 932 933 934 935 936 937 0
c ind 939 940 941 942 943 944 945 946 947 948 0
c ind 949 950 951 952 953 954 955 956 957 958 0
c ind 959 961 963 964 965 966 967 968 969 970 0
c ind 971 972 976 977 978 979 980 982 984 985 0
c ind 986 987 988 989 990 991 992 993 999 1000 0
c ind 1011 1012 1013 1014 1016 1017 1019 1021 1025 1030 0
c ind 1031 1032 1033 1034 1035 1036 1037 1038 1039 1040 0
c ind 1041 1042 1043 1044 1045 1047 1049 1050 1052 1054 0
c ind 1055 1056 1058 1087 1086 1072 1081 1094 1067 1063 0
c ind 1077 1071 1085 1093 821 822 1066 1080 1062 1076 0
c ind 1059 1089 1070 1084 1092 1061 1065 1079 1057 1069 0
c ind 1075 1083 1091 830 1064 1078 1088 1060 1068 1074 0
c ind 1082 1090 995 998 996 997 1073 938 1053 824 0
c ind 823 1051 1046 1048 1026 1027 1028 1029 1023 1024 0
c ind 1018 1020 1015 1022 1004 1005 1007 1008 1009 1010 0
c ind 1001 1002 1003 1006 981 983 975 973 974 994 0
c ind 819 960 962 851 854 852 853 859 861 858 0
c ind 860 857 917 918 912 925 926 908 890 897 0
c ind 898 905 906 907 909 910 884 911 877 880 0
c ind 889 878 879 881 882 883 1 0
c ret 587 588 589 590 591 592 593 594 595 596 0
c ret 597 598 599 600 601 602 603 604 605 606 0
c ret 607 608 609 610 611 612 613 614 615 616 0
c ret 617 618 619 620 621 622 623 624 625 626 0
c ret 627 628 629 630 631 632 633 634 635 636 0
c ret 637 638 639 640 641 642 643 644 645 646 0
c ret 647 648 649 650 651 652 653 654 655 656 0
c ret 657 658 659 660 661 662 663 664 665 666 0
c ret 667 668 669 670 671 672 673 674 675 676 0
c ret 677 678 679 680 681 682 683 684 685 686 0
c ret 687 688 689 690 691 692 693 694 695 696 0
c ret 697 698 699 700 701 702 703 704 705 706 0
c ret 707 708 709 710 711 712 713 714 715 716 0
c ret 717 718 719 720 721 722 723 724 725 726 0
c ret 727 728 729 730 731 732 733 734 735 736 0
c ret 737 738 739 740 741 742 743 744 745 746 0
c ret 747 748 749 750 751 752 753 754 755 756 0
c ret 757 758 759 760 761 762 763 764 765 766 0
c ret 767 768 769 770 771 772 773 774 775 776 0
c ret 777 778 779 780 282 781 782 288 289 290 0
c ret 291 783 292 293 294 295 296 297 298 299 0
c ret 300 301 302 303 304 305 306 307 308 309 0
c ret 310 311 312 313 784 785 314 315 316 786 0
c ret 317 787 318 319 320 321 322 323 324 283 0
c ret 325 326 327 328 329 330 331 332 333 334 0
c ret 788 789 335 336 790 337 791 338 339 340 0
c ret 341 342 343 344 345 346 347 348 349 350 0
c ret 351 792 352 353 354 355 356 357 358 793 0
c ret 794 359 795 360 796 361 362 363 364 365 0
c ret 284 366 367 368 369 370 371 372 373 374 0
c ret 797 375 376 377 378 379 798 380 799 381 0
c ret 382 383 384 800 801 385 386 387 388 389 0
c ret 390 391 392 393 394 395 396 397 398 399 0
c ret 802 400 803 401 402 403 804 404 805 405 0
c ret 285 406 407 408 409 410 411 412 413 414 0
c ret 415 416 417 418 806 419 420 421 807 422 0
c ret 808 423 424 809 810 425 426 427 428 429 0
c ret 430 431 432 433 434 435 436 811 812 437 0
c ret 438 439 440 813 441 442 443 444 445 446 0
c ret 447 448 449 450 451 452 453 454 455 814 0
c ret 456 457 458 459 815 460 816 461 817 818 0
c ret 462 463 464 465 466 467 468 469 470 471 0
c ret 472 473 474 475 476 286 477 478 479 480 0
c ret 481 482 483 484 485 486 487 488 489 490 0
c ret 491 492 493 494 495 496 497 498 499 500 0
c ret 501 502 503 504 505 506 507 508 509 510 0
c ret 511 512 513 514 515 287 516 517 518 519 0
c ret 520 521 522 523 524 525 526 527 528 529 0
c ret 530 531 532 533 534 535 536 537 538 539 0
c ret 540 541 542 543 544 545 546 547 548 549 0
c ret 550 551 552 553 554 555 556 557 558 559 0
c ret 560 561 562 563 564 565 566 567 568 569 0
c ret 570 571 572 573 574 575 576 577 578 579 0
c ret 580 581 582 583 584 585 586 0
2 149 -276 0
2 3 -276 0
2 188 -276 0
-2 276 0
-2 -3 -149 -188 0
3 4 -61 -104 0
3 -4 61 -104 0
-3 104 0
-3 4 61 0
-3 -4 -61 0
4 -5 -14 0
4 -5 -59 0
4 -5 -57 0
-4 5 0
-4 14 57 59 0
5 7 -11 0
5 6 10 -11 0
-5 11 0
-5 -7 -10 0
-5 -6 -7 0
6 514 0
6 -515 -521 0
6 515 -522 0
-6 -514 515 522 0
-6 -514 -515 521 0
-6 7 -8 0
7 -8 -9 0
-7 8 0
6 -7 9 0
8 514 0
8 -515 521 0
8 515 522 0
-8 -514 515 -522 0
-8 -514 -515 -521 0
-6 9 0
9 523 -530 0
9 -523 -529 0
6 -9 -523 529 0
6 -9 523 530 0
-6 10 0
10 -523 529 0
10 523 530 0
6 -10 -523 -529 0
6 -10 523 -530 0
11 -12 -543 0
-11 543 0
-11 12 0
12 -13 -572 -717 -746 0
-12 13 0
-12 572 0
-12 746 0
-12 717 0
13 -601 -630 -659 -688 0
-13 688 0
-13 601 0
-13 659 0
-13 630 0
14 42 -43 0
14 -15 18 -43 0
-14 43 0
-14 -18 -42 0
-14 15 -42 0
15 16 17 0
-15 -16 0
-15 -17 0
16 436 437 438 0
-16 -436 0
-16 -438 0
-16 -437 0
17 444 -446 0
-17 -444 0
-17 446 0
18 -19 807 0
18 19 20 0
-18 -19 -807 0
-18 19 -20 0
19 423 -425 0
-19 -423 0
-19 425 0
20 -21 -806 0
-20 806 0
-20 21 0
21 22 -26 0
-21 -22 0
-21 26 0
22 -23 -314 0
22 -25 -314 0
22 -24 -314 0
-22 314 0
-22 23 24 25 0
23 -315 316 317 0
-23 315 0
-23 -317 0
-23 -316 0
24 320 323 324 0
-24 -320 0
-24 -324 0
-24 -323 0
25 -320 321 322 0
-25 320 0
-25 -322 0
-25 -321 0
26 27 -34 0
26 27 37 -347 0
-26 -27 0
-26 34 -37 0
-26 34 347 0
27 -28 31 0
27 31 368 0
-27 -31 0
-27 28 -368 0
28 -30 371 374 0
28 -29 -30 371 0
-28 -371 0
-28 30 0
-28 29 -374 0
29 372 -373 0
-29 -372 0
-29 373 0
30 369 370 0
-30 -369 0
-30 -370 0
29 -30 31 32 -33 0
30 -31 0
-31 -32 0
-29 -31 0
-31 33 0
32 380 381 0
32 380 388 389 0
-32 -380 0
-32 -381 -388 0
-32 -381 -389 0
33 -368 371 374 -375 0
-33 375 0
-33 -374 0
-33 368 0
-33 -371 0
34 35 -340 0
34 36 -340 -346 0
-34 340 0
-34 -35 346 0
-34 -35 -36 0
35 341 342 343 0
-35 -341 0
-35 -343 0
-35 -342 0
36 344 -345 0
-36 -344 0
-36 345 0
37 38 41 0
-37 -38 0
-37 -41 0
38 -39 -40 -360 0
38 -39 -40 -361 0
-38 40 0
-38 39 0
-38 360 361 0
-35 36 39 -340 -347 0
35 -39 0
-36 -39 0
-39 340 0
-39 347 0
40 346 352 -353 0
-40 353 0
-40 -352 0
-40 -346 0
-39 41 346 -352 0
39 -41 0
-41 352 0
-41 -346 0
17 42 -282 0
42 -282 808 0
-42 282 0
-17 -42 -808 0
43 -44 56 0
-43 44 0
-43 -56 0
44 45 48 0
-44 -45 0
-44 -48 0
45 -46 -47 -467 0
45 -46 -47 -468 0
-45 47 0
-45 46 0
-45 467 468 0
46 470 471 472 473 0
-46 -473 0
-46 -472 0
-46 -470 0
-46 -471 0
47 -464 -465 -466 469 0
-47 466 0
-47 -469 0
-47 464 0
-47 465 0
48 -49 -478 0
48 -50 -478 0
-48 478 0
-48 49 50 0
49 481 -483 0
-49 -481 0
-49 483 0
50 52 -55 485 0
50 -51 52 -485 0
-50 -52 0
-50 51 -485 0
-50 55 485 0
51 -486 487 0
-51 486 0
-51 -487 0
52 53 -54 0
-52 -53 0
-52 54 0
53 489 -490 -491 492 0
-53 -489 0
-53 -492 0
-53 491 0
-53 490 0
54 -478 -485 -486 487 0
-54 486 0
-54 -487 0
-54 478 0
-54 485 0
55 509 -511 0
-55 -509 0
-55 511 0
-18 56 282 -457 0
20 56 282 457 0
-56 -282 0
18 -56 -457 0
-20 -56 457 0
-55 57 -58 -810 0
-57 810 0
55 -57 0
-57 58 0
58 -478 485 0
-58 478 0
-58 -485 0
-49 59 -60 -809 0
-59 809 0
49 -59 0
-59 60 0
50 60 -478 0
-60 478 0
-50 -60 0
61 -62 -99 0
61 -99 1015 0
-61 99 0
-61 62 -1015 0
62 -63 64 0
62 -64 1086 0
62 64 66 0
-62 -64 -1086 0
-62 63 64 -66 0
63 -1022 -1023 1024 0
-63 1022 0
-63 1023 0
-63 -1024 0
64 -65 1022 0
-64 -1022 0
-64 65 0
65 1046 -1048 0
-65 -1046 0
-65 1048 0
66 -67 -1085 0
66 67 68 -71 0
-66 67 71 0
-66 -67 1085 0
-66 67 -68 0
67 1018 -1020 0
-67 -1018 0
-67 1020 0
68 -69 -70 -1004 0
68 -69 -70 -1005 0
-68 70 0
-68 69 0
-68 1004 1005 0
69 1007 1008 1009 1010 0
-69 -1010 0
-69 -1009 0
-69 -1007 0
-69 -1008 0
70 -1001 -1002 -1003 1006 0
-70 1003 0
-70 -1006 0
-70 1001 0
-70 1002 0
71 94 98 0
71 72 94 -95 0
-71 -94 0
-71 -72 -98 0
-71 95 -98 0
72 -73 1083 0
72 73 74 0
-72 -73 -1083 0
-72 73 -74 0
73 960 -962 0
-73 -960 0
-73 962 0
74 -75 -1082 0
-74 1082 0
-74 75 0
75 -76 90 0
-75 76 0
-75 -90 0
76 -83 84 0
76 77 84 -884 0
-76 -84 0
-76 -77 83 0
-76 83 884 0
77 78 0
77 81 -883 0
77 81 889 0
-77 -78 -81 0
-77 -78 883 -889 0
78 -79 80 -877 -884 0
-78 79 0
-78 -80 0
-78 877 0
-78 884 0
79 878 879 880 0
-79 -878 0
-79 -880 0
-79 -879 0
80 881 -882 0
-80 -881 0
-80 882 0
81 82 883 889 -890 0
-81 -883 0
-81 -82 0
-81 890 0
-81 -889 0
82 897 898 0
-82 -897 0
-82 -898 0
79 83 -877 0
80 83 -877 -883 0
-83 877 0
-79 -83 883 0
-79 -80 -83 0
84 86 89 0
84 86 -88 0
84 85 86 0
-84 -86 0
-84 -85 88 -89 0
85 906 907 908 0
-85 -906 0
-85 -908 0
-85 -907 0
85 86 -905 0
86 87 -905 -911 0
-86 905 0
-85 -86 911 0
-85 -86 -87 0
87 909 -910 0
-87 -909 0
-87 910 0
88 917 918 0
88 917 925 926 0
-88 -917 0
-88 -918 -925 0
-88 -918 -926 0
87 89 -905 911 -912 0
-89 912 0
-87 -89 0
-89 905 0
-89 -911 0
90 -91 -851 0
90 -93 -851 0
90 -92 -851 0
-90 851 0
-90 91 92 93 0
91 -852 853 854 0
-91 852 0
-91 -854 0
-91 -853 0
92 857 860 861 0
-92 -857 0
-92 -861 0
-92 -860 0
93 -857 858 859 0
-93 857 0
-93 -859 0
-93 -858 0
-72 94 819 -994 0
74 94 819 994 0
-94 -819 0
72 -94 -994 0
-74 -94 994 0
95 96 97 0
-95 -96 0
-95 -97 0
96 981 -983 0
-96 -981 0
-96 983 0
97 973 974 975 0
-97 -973 0
-97 -975 0
-97 -974 0
96 98 -819 0
98 -819 1084 0
-98 819 0
-96 -98 -1084 0
66 99 100 0
71 99 101 0
99 100 101 0
66 71 99 0
-71 -99 -100 0
-66 -99 -101 0
68 100 1015 0
-100 -1015 0
-68 -100 0
101 102 -103 0
-101 -102 0
-101 103 0
102 1026 -1027 -1028 1029 0
-102 -1026 0
-102 -1029 0
-102 1028 0
-102 1027 0
103 -1015 -1022 -1023 1024 0
-103 1023 0
-103 -1024 0
-103 1015 0
-103 1022 0
104 -105 115 -125 136 0
104 105 -115 125 -136 0
104 -105 115 125 -136 0
104 105 -115 -125 136 0
-104 -105 -115 0
-104 105 115 0
-104 125 136 0
-104 -125 -136 0
105 106 114 1015 0
105 -112 114 -1015 0
-105 -114 0
-105 -106 1015 0
-105 112 -1015 0
68 106 107 111 0
68 106 107 -110 0
-68 -106 0
-106 -107 0
-106 110 -111 0
107 -109 819 -994 0
107 108 819 994 0
-107 -819 0
-107 109 -994 0
-107 -108 994 0
-75 108 -823 0
-108 823 0
75 -108 0
-73 109 1078 0
73 108 109 0
-73 -109 -1078 0
73 -108 -109 0
-95 109 110 0
95 -110 0
-109 -110 0
96 111 -819 0
111 -819 1079 0
-111 819 0
-96 -111 -1079 0
-63 64 112 0
-64 112 1081 0
64 112 113 0
-64 -112 -1081 0
63 64 -112 -113 0
-67 113 -1080 0
67 -106 113 0
-67 -113 1080 0
67 106 -113 0
-101 -113 114 0
101 -114 0
113 -114 0
-5 48 115 116 0
-5 115 116 124 0
5 -115 0
-115 -116 0
-48 -115 -124 0
116 118 478 0
49 116 117 118 0
-116 -118 0
-116 -117 -478 0
-49 -116 -478 0
-55 117 485 -805 0
55 -117 0
-117 805 0
-117 -485 0
45 118 119 123 0
45 118 119 -122 0
-45 -118 0
-118 -119 0
-118 122 -123 0
119 -121 282 -457 0
119 120 282 457 0
-119 -282 0
-119 121 -457 0
-119 -120 457 0
-21 120 -286 0
-120 286 0
21 -120 0
-19 121 802 0
19 120 121 0
-19 -121 -802 0
19 -120 -121 0
-15 121 122 0
15 -122 0
-121 -122 0
17 123 -282 0
123 -282 803 0
-123 282 0
-17 -123 -803 0
-50 117 124 0
117 124 804 0
-117 -124 0
50 -124 -804 0
-5 125 -126 0
-5 125 134 0
5 -125 0
-125 126 -134 0
55 -58 126 -127 0
-55 -58 126 -818 0
58 -126 0
55 -126 127 0
-55 -126 818 0
-49 127 -817 0
49 127 -128 0
-49 -127 817 0
49 -127 128 0
45 128 129 133 0
45 128 129 -132 0
-45 -128 0
-128 -129 0
-128 132 -133 0
129 -131 282 -457 0
129 130 282 457 0
-129 -282 0
-129 131 -457 0
-129 -130 457 0
-21 130 -814 0
-130 814 0
21 -130 0
-19 131 815 0
19 130 131 0
-19 -131 -815 0
19 -130 -131 0
-15 131 132 0
15 -132 0
-131 -132 0
17 133 -282 0
133 -282 816 0
-133 282 0
-17 -133 -816 0
134 -135 -478 0
127 128 134 0
127 134 -478 0
128 134 -135 0
-128 -134 478 0
-127 -134 135 0
52 135 485 0
-51 52 135 0
52 135 478 0
-52 -135 0
51 -135 -478 -485 0
136 143 146 -1015 0
136 137 143 146 0
-136 -146 0
-136 -143 0
-136 -137 1015 0
68 137 138 142 0
68 137 138 -141 0
-68 -137 0
-137 -138 0
-137 141 -142 0
138 -140 819 -994 0
138 139 819 994 0
-138 -819 0
-138 140 -994 0
-138 -139 994 0
-75 139 -1090 0
-139 1090 0
75 -139 0
-73 140 1091 0
73 139 140 0
-73 -140 -1091 0
73 -139 -140 0
-95 140 141 0
95 -141 0
-140 -141 0
96 142 -819 0
142 -819 1092 0
-142 819 0
-96 -142 -1092 0
-65 143 -145 -1094 0
65 143 -144 -145 0
-143 145 0
-65 -143 1094 0
65 -143 144 0
-67 144 -1093 0
67 -137 144 0
-67 -144 1093 0
67 137 -144 0
145 -1015 1022 0
-145 1015 0
-145 -1022 0
-144 146 147 0
144 -146 0
-146 -147 0
101 147 1022 0
101 147 -148 0
101 147 1015 0
-101 -147 0
-147 148 -1015 -1022 0
148 -1023 1024 0
-148 1023 0
-148 -1024 0
149 150 -160 -179 0
149 -150 160 -170 0
149 150 -160 -170 0
149 -150 160 -179 0
-149 -150 -160 0
-149 150 160 0
-149 170 179 0
-5 150 -151 0
-5 150 159 0
5 -150 0
-150 151 -159 0
55 -58 151 -152 0
-55 -58 151 -796 0
58 -151 0
55 -151 152 0
-55 -151 796 0
-49 152 -795 0
49 152 -153 0
-49 -152 795 0
49 -152 153 0
45 153 154 158 0
45 153 154 -157 0
-45 -153 0
-153 -154 0
-153 157 -158 0
154 -156 282 -457 0
154 155 282 457 0
-154 -282 0
-154 156 -457 0
-154 -155 457 0
-21 155 -792 0
-155 792 0
21 -155 0
-19 156 793 0
19 155 156 0
-19 -156 -793 0
19 -155 -156 0
-15 156 157 0
15 -157 0
-156 -157 0
17 158 -282 0
158 -282 794 0
-158 282 0
-17 -158 -794 0
-135 153 159 0
152 159 -478 0
-135 159 -478 0
152 153 159 0
135 -152 -159 0
-153 -159 478 0
160 167 169 -1015 0
160 161 167 169 0
-160 -169 0
-160 -167 0
-160 -161 1015 0
68 161 162 166 0
68 161 162 -165 0
-68 -161 0
-161 -162 0
-161 165 -166 0
162 -164 819 -994 0
162 163 819 994 0
-162 -819 0
-162 164 -994 0
-162 -163 994 0
-75 163 -1068 0
-163 1068 0
75 -163 0
-73 164 1069 0
73 163 164 0
-73 -164 -1069 0
73 -163 -164 0
-95 164 165 0
95 -165 0
-164 -165 0
96 166 -819 0
166 -819 1070 0
-166 819 0
-96 -166 -1070 0
65 -145 167 -168 0
-65 -145 167 -1072 0
145 -167 0
65 -167 168 0
-65 -167 1072 0
-67 168 -1071 0
67 -161 168 0
-67 -168 1071 0
67 161 -168 0
147 -168 169 0
-147 -169 0
168 -169 0
-5 170 -171 0
-5 170 -178 0
-5 170 -177 0
5 -170 0
-170 171 177 178 0
171 174 -175 0
-15 171 172 -175 0
-171 175 0
-171 -172 -174 0
15 -171 -174 0
-19 172 798 0
19 172 173 0
-19 -172 -798 0
19 -172 -173 0
-21 173 -797 0
-173 797 0
21 -173 0
17 174 -282 0
174 -282 799 0
-174 282 0
-17 -174 -799 0
-44 175 176 0
44 -175 0
-175 -176 0
-172 176 282 -457 0
173 176 282 457 0
-176 -282 0
172 -176 -457 0
-173 -176 457 0
-55 -58 177 -801 0
-177 801 0
55 -177 0
58 -177 0
-49 -60 178 -800 0
-178 800 0
49 -178 0
60 -178 0
179 -180 -187 0
179 -187 1015 0
-179 187 0
-179 180 -1015 0
-63 64 180 0
-64 180 1077 0
64 180 181 0
-64 -180 -1077 0
63 64 -180 -181 0
-67 181 -1076 0
67 68 181 -182 0
67 -181 182 0
-67 -181 1076 0
67 -68 -181 0
182 185 186 0
-95 182 183 186 0
-182 -186 0
-182 -183 -185 0
95 -182 -185 0
-73 183 1074 0
73 183 184 0
-73 -183 -1074 0
73 -183 -184 0
-75 184 -1073 0
-184 1073 0
75 -184 0
96 185 -819 0
185 -819 1075 0
-185 819 0
-96 -185 -1075 0
-183 186 819 -994 0
184 186 819 994 0
-186 -819 0
183 -186 -994 0
-184 -186 994 0
101 182 187 0
100 181 187 0
181 182 187 0
100 101 187 0
-100 -182 -187 0
-101 -181 -187 0
170 188 -189 -228 0
179 188 -189 -228 0
-188 228 0
-188 189 0
-170 -179 -188 0
189 190 210 -219 0
189 200 -210 219 0
189 200 210 -219 0
189 190 -210 219 0
-189 210 219 0
-189 -210 -219 0
-189 -190 -200 0
-5 190 -191 0
-5 190 199 0
5 -190 0
-190 191 -199 0
55 -58 191 -192 0
-55 -58 191 -787 0
58 -191 0
55 -191 192 0
-55 -191 787 0
-49 192 -786 0
49 192 -193 0
-49 -192 786 0
49 -192 193 0
45 193 194 198 0
45 193 194 -197 0
-45 -193 0
-193 -194 0
-193 197 -198 0
194 195 -282 785 0
17 194 195 -282 0
-194 282 0
-194 -195 0
-17 -194 -785 0
-15 195 196 0
15 -195 0
-195 -196 0
19 21 196 0
-19 196 784 0
19 196 287 0
-19 -196 -784 0
19 -21 -196 -287 0
19 -21 197 -287 0
-21 197 -287 457 0
21 -197 0
-197 287 0
-19 -197 -457 0
198 282 784 0
198 282 457 0
19 198 282 0
-198 -282 0
-19 -198 -457 -784 0
-135 193 199 0
192 199 -478 0
-135 199 -478 0
192 193 199 0
135 -192 -199 0
-193 -199 478 0
200 207 209 -1015 0
200 201 207 209 0
-200 -209 0
-200 -207 0
-200 -201 1015 0
68 201 202 206 0
68 201 202 -205 0
-68 -201 0
-201 -202 0
-201 205 -206 0
202 203 -819 1061 0
96 202 203 -819 0
-202 819 0
-202 -203 0
-96 -202 -1061 0
-95 203 204 0
95 -203 0
-203 -204 0
73 75 204 0
-73 204 1060 0
73 204 824 0
-73 -204 -1060 0
73 -75 -204 -824 0
73 -75 205 -824 0
-75 205 -824 994 0
75 -205 0
-205 824 0
-73 -205 -994 0
206 819 1060 0
206 819 994 0
73 206 819 0
-206 -819 0
-73 -206 -994 -1060 0
65 -145 207 -208 0
-65 -145 207 -1063 0
145 -207 0
65 -207 208 0
-65 -207 1063 0
-67 208 -1062 0
67 -201 208 0
-67 -208 1062 0
67 201 -208 0
147 -208 209 0
-147 -209 0
208 -209 0
-5 210 -211 0
-5 210 218 0
5 -210 0
-210 211 -218 0
55 -58 211 -212 0
-55 -58 211 -791 0
58 -211 0
55 -211 212 0
-55 -211 791 0
-49 212 -790 0
49 212 -213 0
-49 -212 790 0
49 -212 213 0
45 213 214 217 0
45 213 214 -216 0
-45 -213 0
-213 -214 0
-213 216 -217 0
214 -215 282 -457 0
21 214 282 457 0
-214 -282 0
-214 215 -457 0
-21 -214 457 0
-19 215 788 0
19 21 215 0
-19 -215 -788 0
19 -21 -215 0
-15 215 216 0
15 -216 0
-215 -216 0
17 217 -282 0
217 -282 789 0
-217 282 0
-17 -217 -789 0
-135 213 218 0
212 218 -478 0
-135 218 -478 0
212 213 218 0
135 -212 -218 0
-213 -218 478 0
219 225 227 -1015 0
219 220 225 227 0
-219 -227 0
-219 -225 0
-219 -220 1015 0
68 220 221 224 0
68 220 221 -223 0
-68 -220 0
-220 -221 0
-220 223 -224 0
221 -222 819 -994 0
75 221 819 994 0
-221 -819 0
-221 222 -994 0
-75 -221 994 0
-73 222 1064 0
73 75 222 0
-73 -222 -1064 0
73 -75 -222 0
-95 222 223 0
95 -223 0
-222 -223 0
96 224 -819 0
224 -819 1065 0
-224 819 0
-96 -224 -1065 0
65 -145 225 -226 0
-65 -145 225 -1067 0
145 -225 0
65 -225 226 0
-65 -225 1067 0
-67 226 -1066 0
67 -220 226 0
-67 -226 1066 0
67 220 -226 0
147 -226 227 0
-147 -227 0
226 -227 0
228 229 -230 -261 -268 0
228 229 -230 261 268 0
-228 -229 0
-228 261 -268 0
-228 230 0
-228 -261 268 0
190 200 229 0
-190 -229 0
-200 -229 0
230 231 240 250 -257 0
230 -231 -240 250 -257 0
-230 -250 0
-230 231 -240 0
-230 257 0
-230 -231 240 0
231 232 -238 -239 0
231 232 -238 819 0
-231 238 0
-231 -232 0
-231 239 -819 0
232 233 237 0
232 235 237 0
232 233 -235 819 0
-232 -233 -235 0
-232 235 -237 0
-232 -237 -819 0
-76 233 -1051 0
-76 90 233 234 0
76 -233 0
-233 -234 1051 0
-90 -233 1051 0
234 830 1088 0
-234 -830 0
-234 -1088 0
235 -236 994 995 998 0
-235 236 0
-235 -998 0
-235 -994 0
-235 -995 0
236 996 997 0
-236 -996 0
-236 -997 0
237 938 -1089 0
-233 237 -938 0
233 -237 -938 0
-237 938 1089 0
68 103 238 0
68 102 238 0
-68 -238 0
-102 -103 -238 0
97 -237 239 0
-97 -239 0
237 -239 0
240 -244 282 0
16 240 -241 -244 0
-240 244 0
-240 241 -282 0
-16 -240 -282 0
241 401 -813 0
241 -242 -401 0
-241 242 -401 0
-241 401 813 0
-26 242 -775 0
22 -26 242 243 0
26 -242 0
-242 -243 775 0
-22 -242 775 0
243 293 812 0
-243 -293 0
-243 -812 0
-11 244 245 -248 0
11 -244 0
-244 -245 0
-244 248 0
241 245 246 0
241 242 245 0
242 245 -246 282 0
-241 -245 246 0
-242 -245 -246 0
-241 -245 -282 0
246 -247 457 458 461 0
-246 247 0
-246 -461 0
-246 -457 0
-246 -458 0
247 459 460 0
-247 -459 0
-247 -460 0
7 248 -249 0
10 248 -249 -514 0
-248 249 0
-7 -10 -248 0
-7 -248 514 0
45 54 249 0
45 53 249 0
-45 -249 0
-53 -54 -249 0
250 251 -255 0
250 -251 255 0
-250 -251 -255 0
-250 251 255 0
-26 251 -252 253 -254 0
-251 254 0
26 -251 0
-251 252 0
-251 -253 0
-12 -248 252 0
12 -252 0
248 -252 0
-16 253 -282 0
-253 282 0
16 -253 0
254 -543 -775 777 0
-254 543 0
-254 775 0
-254 -777 0
-238 255 -256 0
238 -255 0
-255 256 0
-76 256 -1051 1053 0
-256 1051 0
-256 -1053 0
76 -256 0
90 -238 257 -258 -260 0
-90 -257 0
-257 260 0
-257 258 0
238 -257 0
97 258 -259 0
258 -259 819 0
-258 259 0
-97 -258 -819 0
259 -822 -823 0
259 -821 824 0
259 -821 -823 0
259 -822 824 0
-259 823 -824 0
-259 821 822 0
-83 84 260 0
77 84 260 0
-84 -260 0
-77 83 -260 0
-238 261 262 0
238 -261 0
-261 -262 0
235 262 -263 0
262 266 267 0
262 -263 266 0
-262 263 -267 0
-235 -262 -266 0
-262 263 -266 0
263 264 -938 0
-256 263 938 1059 0
-263 938 -1059 0
-263 -264 -938 0
256 -263 938 0
-76 264 -265 0
76 -264 0
-264 265 0
265 -1051 -1053 0
90 265 1051 0
265 -1051 -1057 0
-90 -265 1051 0
-265 -1051 1053 1057 0
235 266 819 0
-264 266 819 0
-266 -819 0
-235 264 -266 0
97 267 -819 0
-267 819 0
-97 -267 0
-252 268 269 -543 0
-268 543 0
252 -268 0
-268 -269 0
246 269 -270 0
269 274 275 0
269 -270 274 0
-269 270 -275 0
-246 -269 -274 0
-269 270 -274 0
270 271 -401 0
-26 270 -273 401 0
-270 -271 -401 0
26 -270 401 0
-270 273 401 0
-26 271 -272 0
26 -271 0
-271 272 0
272 -775 -777 0
22 272 775 0
272 -775 -781 0
-22 -272 775 0
-272 -775 777 781 0
273 -775 777 783 0
-273 775 0
-273 -783 0
-273 -777 0
246 274 282 0
-271 274 282 0
-274 -282 0
-246 271 -274 0
16 275 -282 0
-275 282 0
-16 -275 0
9 276 -277 0
8 276 -277 0
10 276 -277 0
-276 277 0
-8 -9 -10 -276 0
-34 277 -278 0
-38 277 -278 0
-41 277 -278 0
-277 278 0
34 38 41 -277 0
22 27 -249 278 -279 0
-22 -278 0
-278 279 0
249 -278 0
-27 -278 0
-13 253 279 -280 -281 0
-279 281 0
13 -279 0
-279 280 0
-253 -279 0
280 -543 -572 -717 -746 0
-280 746 0
-280 543 0
-280 717 0
-280 572 0
281 -285 -286 0
281 -284 287 0
281 -284 -286 0
281 -285 287 0
-281 286 -287 0
-281 284 285 0
1 2 0
-1 -2 0
1095 0

